100
32
22
32
17
10
19
1
1
17
27
2
4
9
8
11
23
10
1
1
1
1
1
1
1
19
4
3
1
3
1
4
1
18
2
1
1
22
18
1
17
1
1
2
3
2
5
3
3
2
1
18
2
1
1
2
1
2
4
16
2
2
1
1
1
1
2
2
5
1
1
6
17
3
3
3
1
1
17
4
1
1
4
3
1
1
4
5
1
2
1
1
1
2
5
2
4
1
1
1
17
1